data/lp_files/pEFS/56_9.lp
\ Model foo
\ LP format - for model browsing. Use MPS format to capture full model detail.
Minimize
  z
Subject To
 allocateEach[1]: x[1,1] + x[2,1] + x[3,1] = 1
 allocateEach[2]: x[1,2] + x[2,2] + x[3,2] = 1
 allocateEach[3]: x[1,3] + x[2,3] + x[3,3] = 1
 allocateEach[4]: x[1,4] + x[2,4] + x[3,4] = 1
 allocateEach[5]: x[1,5] + x[2,5] + x[3,5] = 1
 allocateEach[6]: x[1,6] + x[2,6] + x[3,6] = 1
 allocateEach[7]: x[1,7] + x[2,7] + x[3,7] = 1
 allocateEach[8]: x[1,8] + x[2,8] + x[3,8] = 1
 allocateEach[9]: x[1,9] + x[2,9] + x[3,9] = 1
 allocateEach[10]: x[1,10] + x[2,10] + x[3,10] = 1
 allocateEach[11]: x[1,11] + x[2,11] + x[3,11] = 1
 allocateEach[12]: x[1,12] + x[2,12] + x[3,12] = 1
 allocateEach[13]: x[1,13] + x[2,13] + x[3,13] = 1
 allocateEach[14]: x[1,14] + x[2,14] + x[3,14] = 1
 allocateEach[15]: x[1,15] + x[2,15] + x[3,15] = 1
 allocateEach[16]: x[1,16] + x[2,16] + x[3,16] = 1
 allocateAllCash: cashProportion[1] + cashProportion[2] + cashProportion[3]
   = 1
 findWorstP[1,2]: z + 0.1010305112143868 cashProportion[1]
   - 0.1010305112143868 cashProportion[2] + 0.0725399070519297 x[1,1]
   + 0.0990806223479491 x[1,2] + 0.0226207314609012 x[1,3]
   + 0.0620125277833906 x[1,4] + 0.0135683976560921 x[1,5]
   + 0.0289654475651647 x[1,6] + 0.0493736108304708 x[1,7]
   + 0.059557486360881 x[1,8] + 0.0398464336229541 x[1,9]
   + 0.0793796726611437 x[1,10] + 0.0938472418670439 x[1,11]
   + 0.0202970297029703 x[1,12] + 0.0692362093352192 x[1,13]
   + 0.0350171751869064 x[1,14] + 0.0570216205293999 x[1,15]
   + 0.0966053748231966 x[1,16] - 0.0725399070519297 x[2,1]
   - 0.0990806223479491 x[2,2] - 0.0226207314609012 x[2,3]
   - 0.0620125277833906 x[2,4] - 0.0135683976560921 x[2,5]
   - 0.0289654475651647 x[2,6] - 0.0493736108304708 x[2,7]
   - 0.059557486360881 x[2,8] - 0.0398464336229541 x[2,9]
   - 0.0793796726611437 x[2,10] - 0.0938472418670439 x[2,11]
   - 0.0202970297029703 x[2,12] - 0.0692362093352192 x[2,13]
   - 0.0350171751869064 x[2,14] - 0.0570216205293999 x[2,15]
   - 0.0966053748231966 x[2,16] >= 0
 findWorstP[1,3]: z + 0.1010305112143868 cashProportion[1]
   - 0.1010305112143868 cashProportion[3] + 0.0725399070519297 x[1,1]
   + 0.0990806223479491 x[1,2] + 0.0226207314609012 x[1,3]
   + 0.0620125277833906 x[1,4] + 0.0135683976560921 x[1,5]
   + 0.0289654475651647 x[1,6] + 0.0493736108304708 x[1,7]
   + 0.059557486360881 x[1,8] + 0.0398464336229541 x[1,9]
   + 0.0793796726611437 x[1,10] + 0.0938472418670439 x[1,11]
   + 0.0202970297029703 x[1,12] + 0.0692362093352192 x[1,13]
   + 0.0350171751869064 x[1,14] + 0.0570216205293999 x[1,15]
   + 0.0966053748231966 x[1,16] - 0.0725399070519297 x[3,1]
   - 0.0990806223479491 x[3,2] - 0.0226207314609012 x[3,3]
   - 0.0620125277833906 x[3,4] - 0.0135683976560921 x[3,5]
   - 0.0289654475651647 x[3,6] - 0.0493736108304708 x[3,7]
   - 0.059557486360881 x[3,8] - 0.0398464336229541 x[3,9]
   - 0.0793796726611437 x[3,10] - 0.0938472418670439 x[3,11]
   - 0.0202970297029703 x[3,12] - 0.0692362093352192 x[3,13]
   - 0.0350171751869064 x[3,14] - 0.0570216205293999 x[3,15]
   - 0.0966053748231966 x[3,16] >= 0
 findWorstP[2,1]: z - 0.0928772441464117 cashProportion[1]
   + 0.0928772441464117 cashProportion[2] - 0.0614290092784367 x[1,1]
   - 0.0636023367914627 x[1,2] - 0.069212122337906 x[1,3]
   - 0.0760107366094233 x[1,4] - 0.0211109975944794 x[1,5]
   - 0.072834334859616 x[1,6] - 0.0803573916354754 x[1,7]
   - 0.04348512570935 x[1,8] - 0.0780261728074005 x[1,9]
   - 0.030231542969657 x[1,10] - 0.0402344221642255 x[1,11]
   - 0.0574167123313117 x[1,12] - 0.0312903435529261 x[1,13]
   - 0.0610110616797778 x[1,14] - 0.0873510481197002 x[1,15]
   - 0.03351939741244 x[1,16] + 0.0614290092784367 x[2,1]
   + 0.0636023367914627 x[2,2] + 0.069212122337906 x[2,3]
   + 0.0760107366094233 x[2,4] + 0.0211109975944794 x[2,5]
   + 0.072834334859616 x[2,6] + 0.0803573916354754 x[2,7]
   + 0.04348512570935 x[2,8] + 0.0780261728074005 x[2,9]
   + 0.030231542969657 x[2,10] + 0.0402344221642255 x[2,11]
   + 0.0574167123313117 x[2,12] + 0.0312903435529261 x[2,13]
   + 0.0610110616797778 x[2,14] + 0.0873510481197002 x[2,15]
   + 0.03351939741244 x[2,16] >= 0
 findWorstP[2,3]: z + 0.0928772441464117 cashProportion[2]
   - 0.0928772441464117 cashProportion[3] + 0.0614290092784367 x[2,1]
   + 0.0636023367914627 x[2,2] + 0.069212122337906 x[2,3]
   + 0.0760107366094233 x[2,4] + 0.0211109975944794 x[2,5]
   + 0.072834334859616 x[2,6] + 0.0803573916354754 x[2,7]
   + 0.04348512570935 x[2,8] + 0.0780261728074005 x[2,9]
   + 0.030231542969657 x[2,10] + 0.0402344221642255 x[2,11]
   + 0.0574167123313117 x[2,12] + 0.0312903435529261 x[2,13]
   + 0.0610110616797778 x[2,14] + 0.0873510481197002 x[2,15]
   + 0.03351939741244 x[2,16] - 0.0614290092784367 x[3,1]
   - 0.0636023367914627 x[3,2] - 0.069212122337906 x[3,3]
   - 0.0760107366094233 x[3,4] - 0.0211109975944794 x[3,5]
   - 0.072834334859616 x[3,6] - 0.0803573916354754 x[3,7]
   - 0.04348512570935 x[3,8] - 0.0780261728074005 x[3,9]
   - 0.030231542969657 x[3,10] - 0.0402344221642255 x[3,11]
   - 0.0574167123313117 x[3,12] - 0.0312903435529261 x[3,13]
   - 0.0610110616797778 x[3,14] - 0.0873510481197002 x[3,15]
   - 0.03351939741244 x[3,16] >= 0
 findWorstP[3,1]: z - 0.1092215778149132 cashProportion[1]
   + 0.1092215778149132 cashProportion[3] - 0.0662101204714003 x[1,1]
   - 0.0361632644145177 x[1,2] - 0.027032340509191 x[1,3]
   - 0.0832814530838712 x[1,4] - 0.0855532619024214 x[1,5]
   - 0.0109330799392728 x[1,6] - 0.0338259226492786 x[1,7]
   - 0.0658169227912666 x[1,8] - 0.093078628613869 x[1,9]
   - 0.0947169522810927 x[1,10] - 0.0136854637002086 x[1,11]
   - 0.0651179046932512 x[1,12] - 0.0240942800659698 x[1,13]
   - 0.0589905741778346 x[1,14] - 0.0969778389418614 x[1,15]
   - 0.0353004139497799 x[1,16] + 0.0662101204714003 x[3,1]
   + 0.0361632644145177 x[3,2] + 0.027032340509191 x[3,3]
   + 0.0832814530838712 x[3,4] + 0.0855532619024214 x[3,5]
   + 0.0109330799392728 x[3,6] + 0.0338259226492786 x[3,7]
   + 0.0658169227912666 x[3,8] + 0.093078628613869 x[3,9]
   + 0.0947169522810927 x[3,10] + 0.0136854637002086 x[3,11]
   + 0.0651179046932512 x[3,12] + 0.0240942800659698 x[3,13]
   + 0.0589905741778346 x[3,14] + 0.0969778389418614 x[3,15]
   + 0.0353004139497799 x[3,16] >= 0
 findWorstP[3,2]: z - 0.1092215778149132 cashProportion[2]
   + 0.1092215778149132 cashProportion[3] - 0.0662101204714003 x[2,1]
   - 0.0361632644145177 x[2,2] - 0.027032340509191 x[2,3]
   - 0.0832814530838712 x[2,4] - 0.0855532619024214 x[2,5]
   - 0.0109330799392728 x[2,6] - 0.0338259226492786 x[2,7]
   - 0.0658169227912666 x[2,8] - 0.093078628613869 x[2,9]
   - 0.0947169522810927 x[2,10] - 0.0136854637002086 x[2,11]
   - 0.0651179046932512 x[2,12] - 0.0240942800659698 x[2,13]
   - 0.0589905741778346 x[2,14] - 0.0969778389418614 x[2,15]
   - 0.0353004139497799 x[2,16] + 0.0662101204714003 x[3,1]
   + 0.0361632644145177 x[3,2] + 0.027032340509191 x[3,3]
   + 0.0832814530838712 x[3,4] + 0.0855532619024214 x[3,5]
   + 0.0109330799392728 x[3,6] + 0.0338259226492786 x[3,7]
   + 0.0658169227912666 x[3,8] + 0.093078628613869 x[3,9]
   + 0.0947169522810927 x[3,10] + 0.0136854637002086 x[3,11]
   + 0.0651179046932512 x[3,12] + 0.0240942800659698 x[3,13]
   + 0.0589905741778346 x[3,14] + 0.0969778389418614 x[3,15]
   + 0.0353004139497799 x[3,16] >= 0
Bounds
 z <= 1
 -infinity <= cashProportion[1] <= 1
 -infinity <= cashProportion[2] <= 1
 -infinity <= cashProportion[3] <= 1
Binaries
 x[1,1] x[1,2] x[1,3] x[1,4] x[1,5] x[1,6] x[1,7] x[1,8] x[1,9] x[1,10]
 x[1,11] x[1,12] x[1,13] x[1,14] x[1,15] x[1,16] x[2,1] x[2,2] x[2,3]
 x[2,4] x[2,5] x[2,6] x[2,7] x[2,8] x[2,9] x[2,10] x[2,11] x[2,12] x[2,13]
 x[2,14] x[2,15] x[2,16] x[3,1] x[3,2] x[3,3] x[3,4] x[3,5] x[3,6] x[3,7]
 x[3,8] x[3,9] x[3,10] x[3,11] x[3,12] x[3,13] x[3,14] x[3,15] x[3,16]
End
