data/mps_files/pEFS/56_9.mps
NAME foo
ROWS
 N  OBJ
 E  allocateEach[1]
 E  allocateEach[2]
 E  allocateEach[3]
 E  allocateEach[4]
 E  allocateEach[5]
 E  allocateEach[6]
 E  allocateEach[7]
 E  allocateEach[8]
 E  allocateEach[9]
 E  allocateEach[10]
 E  allocateEach[11]
 E  allocateEach[12]
 E  allocateEach[13]
 E  allocateEach[14]
 E  allocateEach[15]
 E  allocateEach[16]
 E  allocateAllCash
 G  findWorstP[1,2]
 G  findWorstP[1,3]
 G  findWorstP[2,1]
 G  findWorstP[2,3]
 G  findWorstP[3,1]
 G  findWorstP[3,2]
COLUMNS
    z         OBJ       1
    z         findWorstP[1,2]  1
    z         findWorstP[1,3]  1
    z         findWorstP[2,1]  1
    z         findWorstP[2,3]  1
    z         findWorstP[3,1]  1
    z         findWorstP[3,2]  1
    cashProportion[1]  allocateAllCash  1
    cashProportion[1]  findWorstP[1,2]  1.0103051121438678e-01
    cashProportion[1]  findWorstP[1,3]  1.0103051121438678e-01
    cashProportion[1]  findWorstP[2,1]  -0.0928772441464117
    cashProportion[1]  findWorstP[3,1]  -1.0922157781491315e-01
    cashProportion[2]  allocateAllCash  1
    cashProportion[2]  findWorstP[1,2]  -1.0103051121438678e-01
    cashProportion[2]  findWorstP[2,1]  0.0928772441464117
    cashProportion[2]  findWorstP[2,3]  0.0928772441464117
    cashProportion[2]  findWorstP[3,2]  -1.0922157781491315e-01
    cashProportion[3]  allocateAllCash  1
    cashProportion[3]  findWorstP[1,3]  -1.0103051121438678e-01
    cashProportion[3]  findWorstP[2,3]  -0.0928772441464117
    cashProportion[3]  findWorstP[3,1]  1.0922157781491315e-01
    cashProportion[3]  findWorstP[3,2]  1.0922157781491315e-01
    MARKER    'MARKER'                 'INTORG'
    x[1,1]    allocateEach[1]  1
    x[1,1]    findWorstP[1,2]  7.2539907051929683e-02
    x[1,1]    findWorstP[1,3]  7.2539907051929683e-02
    x[1,1]    findWorstP[2,1]  -6.1429009278436690e-02
    x[1,1]    findWorstP[3,1]  -6.6210120471400333e-02
    x[1,2]    allocateEach[2]  1
    x[1,2]    findWorstP[1,2]  9.9080622347949079e-02
    x[1,2]    findWorstP[1,3]  9.9080622347949079e-02
    x[1,2]    findWorstP[2,1]  -6.3602336791462724e-02
    x[1,2]    findWorstP[3,1]  -3.6163264414517733e-02
    x[1,3]    allocateEach[3]  1
    x[1,3]    findWorstP[1,2]  2.2620731460901190e-02
    x[1,3]    findWorstP[1,3]  2.2620731460901190e-02
    x[1,3]    findWorstP[2,1]  -6.9212122337905982e-02
    x[1,3]    findWorstP[3,1]  -2.7032340509190997e-02
    x[1,4]    allocateEach[4]  1
    x[1,4]    findWorstP[1,2]  6.2012527783390586e-02
    x[1,4]    findWorstP[1,3]  6.2012527783390586e-02
    x[1,4]    findWorstP[2,1]  -7.6010736609423327e-02
    x[1,4]    findWorstP[3,1]  -8.3281453083871249e-02
    x[1,5]    allocateEach[5]  1
    x[1,5]    findWorstP[1,2]  1.3568397656092140e-02
    x[1,5]    findWorstP[1,3]  1.3568397656092140e-02
    x[1,5]    findWorstP[2,1]  -2.1110997594479375e-02
    x[1,5]    findWorstP[3,1]  -8.5553261902421449e-02
    x[1,6]    allocateEach[6]  1
    x[1,6]    findWorstP[1,2]  2.8965447565164681e-02
    x[1,6]    findWorstP[1,3]  2.8965447565164681e-02
    x[1,6]    findWorstP[2,1]  -7.2834334859616046e-02
    x[1,6]    findWorstP[3,1]  -1.0933079939272804e-02
    x[1,7]    allocateEach[7]  1
    x[1,7]    findWorstP[1,2]  4.9373610830470809e-02
    x[1,7]    findWorstP[1,3]  4.9373610830470809e-02
    x[1,7]    findWorstP[2,1]  -0.0803573916354754
    x[1,7]    findWorstP[3,1]  -3.3825922649278591e-02
    x[1,8]    allocateEach[8]  1
    x[1,8]    findWorstP[1,2]  5.9557486360880992e-02
    x[1,8]    findWorstP[1,3]  5.9557486360880992e-02
    x[1,8]    findWorstP[2,1]  -4.3485125709349953e-02
    x[1,8]    findWorstP[3,1]  -6.5816922791266649e-02
    x[1,9]    allocateEach[9]  1
    x[1,9]    findWorstP[1,2]  3.9846433622954133e-02
    x[1,9]    findWorstP[1,3]  3.9846433622954133e-02
    x[1,9]    findWorstP[2,1]  -7.8026172807400457e-02
    x[1,9]    findWorstP[3,1]  -9.3078628613868952e-02
    x[1,10]   allocateEach[10]  1
    x[1,10]   findWorstP[1,2]  7.9379672661143666e-02
    x[1,10]   findWorstP[1,3]  7.9379672661143666e-02
    x[1,10]   findWorstP[2,1]  -3.0231542969657004e-02
    x[1,10]   findWorstP[3,1]  -9.4716952281092656e-02
    x[1,11]   allocateEach[11]  1
    x[1,11]   findWorstP[1,2]  9.3847241867043851e-02
    x[1,11]   findWorstP[1,3]  9.3847241867043851e-02
    x[1,11]   findWorstP[2,1]  -4.0234422164225542e-02
    x[1,11]   findWorstP[3,1]  -1.3685463700208613e-02
    x[1,12]   allocateEach[12]  1
    x[1,12]   findWorstP[1,2]  2.0297029702970298e-02
    x[1,12]   findWorstP[1,3]  2.0297029702970298e-02
    x[1,12]   findWorstP[2,1]  -0.0574167123313117
    x[1,12]   findWorstP[3,1]  -0.0651179046932512
    x[1,13]   allocateEach[13]  1
    x[1,13]   findWorstP[1,2]  6.9236209335219234e-02
    x[1,13]   findWorstP[1,3]  6.9236209335219234e-02
    x[1,13]   findWorstP[2,1]  -3.1290343552926092e-02
    x[1,13]   findWorstP[3,1]  -2.4094280065969833e-02
    x[1,14]   allocateEach[14]  1
    x[1,14]   findWorstP[1,2]  3.5017175186906446e-02
    x[1,14]   findWorstP[1,3]  3.5017175186906446e-02
    x[1,14]   findWorstP[2,1]  -6.1011061679777844e-02
    x[1,14]   findWorstP[3,1]  -5.8990574177834577e-02
    x[1,15]   allocateEach[15]  1
    x[1,15]   findWorstP[1,2]  5.7021620529399880e-02
    x[1,15]   findWorstP[1,3]  5.7021620529399880e-02
    x[1,15]   findWorstP[2,1]  -0.0873510481197002
    x[1,15]   findWorstP[3,1]  -9.6977838941861363e-02
    x[1,16]   allocateEach[16]  1
    x[1,16]   findWorstP[1,2]  9.6605374823196616e-02
    x[1,16]   findWorstP[1,3]  9.6605374823196616e-02
    x[1,16]   findWorstP[2,1]  -3.3519397412439977e-02
    x[1,16]   findWorstP[3,1]  -3.5300413949779917e-02
    x[2,1]    allocateEach[1]  1
    x[2,1]    findWorstP[1,2]  -7.2539907051929683e-02
    x[2,1]    findWorstP[2,1]  6.1429009278436690e-02
    x[2,1]    findWorstP[2,3]  6.1429009278436690e-02
    x[2,1]    findWorstP[3,2]  -6.6210120471400333e-02
    x[2,2]    allocateEach[2]  1
    x[2,2]    findWorstP[1,2]  -9.9080622347949079e-02
    x[2,2]    findWorstP[2,1]  6.3602336791462724e-02
    x[2,2]    findWorstP[2,3]  6.3602336791462724e-02
    x[2,2]    findWorstP[3,2]  -3.6163264414517733e-02
    x[2,3]    allocateEach[3]  1
    x[2,3]    findWorstP[1,2]  -2.2620731460901190e-02
    x[2,3]    findWorstP[2,1]  6.9212122337905982e-02
    x[2,3]    findWorstP[2,3]  6.9212122337905982e-02
    x[2,3]    findWorstP[3,2]  -2.7032340509190997e-02
    x[2,4]    allocateEach[4]  1
    x[2,4]    findWorstP[1,2]  -6.2012527783390586e-02
    x[2,4]    findWorstP[2,1]  7.6010736609423327e-02
    x[2,4]    findWorstP[2,3]  7.6010736609423327e-02
    x[2,4]    findWorstP[3,2]  -8.3281453083871249e-02
    x[2,5]    allocateEach[5]  1
    x[2,5]    findWorstP[1,2]  -1.3568397656092140e-02
    x[2,5]    findWorstP[2,1]  2.1110997594479375e-02
    x[2,5]    findWorstP[2,3]  2.1110997594479375e-02
    x[2,5]    findWorstP[3,2]  -8.5553261902421449e-02
    x[2,6]    allocateEach[6]  1
    x[2,6]    findWorstP[1,2]  -2.8965447565164681e-02
    x[2,6]    findWorstP[2,1]  7.2834334859616046e-02
    x[2,6]    findWorstP[2,3]  7.2834334859616046e-02
    x[2,6]    findWorstP[3,2]  -1.0933079939272804e-02
    x[2,7]    allocateEach[7]  1
    x[2,7]    findWorstP[1,2]  -4.9373610830470809e-02
    x[2,7]    findWorstP[2,1]  0.0803573916354754
    x[2,7]    findWorstP[2,3]  0.0803573916354754
    x[2,7]    findWorstP[3,2]  -3.3825922649278591e-02
    x[2,8]    allocateEach[8]  1
    x[2,8]    findWorstP[1,2]  -5.9557486360880992e-02
    x[2,8]    findWorstP[2,1]  4.3485125709349953e-02
    x[2,8]    findWorstP[2,3]  4.3485125709349953e-02
    x[2,8]    findWorstP[3,2]  -6.5816922791266649e-02
    x[2,9]    allocateEach[9]  1
    x[2,9]    findWorstP[1,2]  -3.9846433622954133e-02
    x[2,9]    findWorstP[2,1]  7.8026172807400457e-02
    x[2,9]    findWorstP[2,3]  7.8026172807400457e-02
    x[2,9]    findWorstP[3,2]  -9.3078628613868952e-02
    x[2,10]   allocateEach[10]  1
    x[2,10]   findWorstP[1,2]  -7.9379672661143666e-02
    x[2,10]   findWorstP[2,1]  3.0231542969657004e-02
    x[2,10]   findWorstP[2,3]  3.0231542969657004e-02
    x[2,10]   findWorstP[3,2]  -9.4716952281092656e-02
    x[2,11]   allocateEach[11]  1
    x[2,11]   findWorstP[1,2]  -9.3847241867043851e-02
    x[2,11]   findWorstP[2,1]  4.0234422164225542e-02
    x[2,11]   findWorstP[2,3]  4.0234422164225542e-02
    x[2,11]   findWorstP[3,2]  -1.3685463700208613e-02
    x[2,12]   allocateEach[12]  1
    x[2,12]   findWorstP[1,2]  -2.0297029702970298e-02
    x[2,12]   findWorstP[2,1]  0.0574167123313117
    x[2,12]   findWorstP[2,3]  0.0574167123313117
    x[2,12]   findWorstP[3,2]  -0.0651179046932512
    x[2,13]   allocateEach[13]  1
    x[2,13]   findWorstP[1,2]  -6.9236209335219234e-02
    x[2,13]   findWorstP[2,1]  3.1290343552926092e-02
    x[2,13]   findWorstP[2,3]  3.1290343552926092e-02
    x[2,13]   findWorstP[3,2]  -2.4094280065969833e-02
    x[2,14]   allocateEach[14]  1
    x[2,14]   findWorstP[1,2]  -3.5017175186906446e-02
    x[2,14]   findWorstP[2,1]  6.1011061679777844e-02
    x[2,14]   findWorstP[2,3]  6.1011061679777844e-02
    x[2,14]   findWorstP[3,2]  -5.8990574177834577e-02
    x[2,15]   allocateEach[15]  1
    x[2,15]   findWorstP[1,2]  -5.7021620529399880e-02
    x[2,15]   findWorstP[2,1]  0.0873510481197002
    x[2,15]   findWorstP[2,3]  0.0873510481197002
    x[2,15]   findWorstP[3,2]  -9.6977838941861363e-02
    x[2,16]   allocateEach[16]  1
    x[2,16]   findWorstP[1,2]  -9.6605374823196616e-02
    x[2,16]   findWorstP[2,1]  3.3519397412439977e-02
    x[2,16]   findWorstP[2,3]  3.3519397412439977e-02
    x[2,16]   findWorstP[3,2]  -3.5300413949779917e-02
    x[3,1]    allocateEach[1]  1
    x[3,1]    findWorstP[1,3]  -7.2539907051929683e-02
    x[3,1]    findWorstP[2,3]  -6.1429009278436690e-02
    x[3,1]    findWorstP[3,1]  6.6210120471400333e-02
    x[3,1]    findWorstP[3,2]  6.6210120471400333e-02
    x[3,2]    allocateEach[2]  1
    x[3,2]    findWorstP[1,3]  -9.9080622347949079e-02
    x[3,2]    findWorstP[2,3]  -6.3602336791462724e-02
    x[3,2]    findWorstP[3,1]  3.6163264414517733e-02
    x[3,2]    findWorstP[3,2]  3.6163264414517733e-02
    x[3,3]    allocateEach[3]  1
    x[3,3]    findWorstP[1,3]  -2.2620731460901190e-02
    x[3,3]    findWorstP[2,3]  -6.9212122337905982e-02
    x[3,3]    findWorstP[3,1]  2.7032340509190997e-02
    x[3,3]    findWorstP[3,2]  2.7032340509190997e-02
    x[3,4]    allocateEach[4]  1
    x[3,4]    findWorstP[1,3]  -6.2012527783390586e-02
    x[3,4]    findWorstP[2,3]  -7.6010736609423327e-02
    x[3,4]    findWorstP[3,1]  8.3281453083871249e-02
    x[3,4]    findWorstP[3,2]  8.3281453083871249e-02
    x[3,5]    allocateEach[5]  1
    x[3,5]    findWorstP[1,3]  -1.3568397656092140e-02
    x[3,5]    findWorstP[2,3]  -2.1110997594479375e-02
    x[3,5]    findWorstP[3,1]  8.5553261902421449e-02
    x[3,5]    findWorstP[3,2]  8.5553261902421449e-02
    x[3,6]    allocateEach[6]  1
    x[3,6]    findWorstP[1,3]  -2.8965447565164681e-02
    x[3,6]    findWorstP[2,3]  -7.2834334859616046e-02
    x[3,6]    findWorstP[3,1]  1.0933079939272804e-02
    x[3,6]    findWorstP[3,2]  1.0933079939272804e-02
    x[3,7]    allocateEach[7]  1
    x[3,7]    findWorstP[1,3]  -4.9373610830470809e-02
    x[3,7]    findWorstP[2,3]  -0.0803573916354754
    x[3,7]    findWorstP[3,1]  3.3825922649278591e-02
    x[3,7]    findWorstP[3,2]  3.3825922649278591e-02
    x[3,8]    allocateEach[8]  1
    x[3,8]    findWorstP[1,3]  -5.9557486360880992e-02
    x[3,8]    findWorstP[2,3]  -4.3485125709349953e-02
    x[3,8]    findWorstP[3,1]  6.5816922791266649e-02
    x[3,8]    findWorstP[3,2]  6.5816922791266649e-02
    x[3,9]    allocateEach[9]  1
    x[3,9]    findWorstP[1,3]  -3.9846433622954133e-02
    x[3,9]    findWorstP[2,3]  -7.8026172807400457e-02
    x[3,9]    findWorstP[3,1]  9.3078628613868952e-02
    x[3,9]    findWorstP[3,2]  9.3078628613868952e-02
    x[3,10]   allocateEach[10]  1
    x[3,10]   findWorstP[1,3]  -7.9379672661143666e-02
    x[3,10]   findWorstP[2,3]  -3.0231542969657004e-02
    x[3,10]   findWorstP[3,1]  9.4716952281092656e-02
    x[3,10]   findWorstP[3,2]  9.4716952281092656e-02
    x[3,11]   allocateEach[11]  1
    x[3,11]   findWorstP[1,3]  -9.3847241867043851e-02
    x[3,11]   findWorstP[2,3]  -4.0234422164225542e-02
    x[3,11]   findWorstP[3,1]  1.3685463700208613e-02
    x[3,11]   findWorstP[3,2]  1.3685463700208613e-02
    x[3,12]   allocateEach[12]  1
    x[3,12]   findWorstP[1,3]  -2.0297029702970298e-02
    x[3,12]   findWorstP[2,3]  -0.0574167123313117
    x[3,12]   findWorstP[3,1]  0.0651179046932512
    x[3,12]   findWorstP[3,2]  0.0651179046932512
    x[3,13]   allocateEach[13]  1
    x[3,13]   findWorstP[1,3]  -6.9236209335219234e-02
    x[3,13]   findWorstP[2,3]  -3.1290343552926092e-02
    x[3,13]   findWorstP[3,1]  2.4094280065969833e-02
    x[3,13]   findWorstP[3,2]  2.4094280065969833e-02
    x[3,14]   allocateEach[14]  1
    x[3,14]   findWorstP[1,3]  -3.5017175186906446e-02
    x[3,14]   findWorstP[2,3]  -6.1011061679777844e-02
    x[3,14]   findWorstP[3,1]  5.8990574177834577e-02
    x[3,14]   findWorstP[3,2]  5.8990574177834577e-02
    x[3,15]   allocateEach[15]  1
    x[3,15]   findWorstP[1,3]  -5.7021620529399880e-02
    x[3,15]   findWorstP[2,3]  -0.0873510481197002
    x[3,15]   findWorstP[3,1]  9.6977838941861363e-02
    x[3,15]   findWorstP[3,2]  9.6977838941861363e-02
    x[3,16]   allocateEach[16]  1
    x[3,16]   findWorstP[1,3]  -9.6605374823196616e-02
    x[3,16]   findWorstP[2,3]  -3.3519397412439977e-02
    x[3,16]   findWorstP[3,1]  3.5300413949779917e-02
    x[3,16]   findWorstP[3,2]  3.5300413949779917e-02
    MARKER    'MARKER'                 'INTEND'
RHS
    RHS1      allocateEach[1]  1
    RHS1      allocateEach[2]  1
    RHS1      allocateEach[3]  1
    RHS1      allocateEach[4]  1
    RHS1      allocateEach[5]  1
    RHS1      allocateEach[6]  1
    RHS1      allocateEach[7]  1
    RHS1      allocateEach[8]  1
    RHS1      allocateEach[9]  1
    RHS1      allocateEach[10]  1
    RHS1      allocateEach[11]  1
    RHS1      allocateEach[12]  1
    RHS1      allocateEach[13]  1
    RHS1      allocateEach[14]  1
    RHS1      allocateEach[15]  1
    RHS1      allocateEach[16]  1
    RHS1      allocateAllCash  1
BOUNDS
 UP BND1      z         1
 MI BND1      cashProportion[1]
 UP BND1      cashProportion[1]  1
 MI BND1      cashProportion[2]
 UP BND1      cashProportion[2]  1
 MI BND1      cashProportion[3]
 UP BND1      cashProportion[3]  1
 BV BND1      x[1,1]  
 BV BND1      x[1,2]  
 BV BND1      x[1,3]  
 BV BND1      x[1,4]  
 BV BND1      x[1,5]  
 BV BND1      x[1,6]  
 BV BND1      x[1,7]  
 BV BND1      x[1,8]  
 BV BND1      x[1,9]  
 BV BND1      x[1,10] 
 BV BND1      x[1,11] 
 BV BND1      x[1,12] 
 BV BND1      x[1,13] 
 BV BND1      x[1,14] 
 BV BND1      x[1,15] 
 BV BND1      x[1,16] 
 BV BND1      x[2,1]  
 BV BND1      x[2,2]  
 BV BND1      x[2,3]  
 BV BND1      x[2,4]  
 BV BND1      x[2,5]  
 BV BND1      x[2,6]  
 BV BND1      x[2,7]  
 BV BND1      x[2,8]  
 BV BND1      x[2,9]  
 BV BND1      x[2,10] 
 BV BND1      x[2,11] 
 BV BND1      x[2,12] 
 BV BND1      x[2,13] 
 BV BND1      x[2,14] 
 BV BND1      x[2,15] 
 BV BND1      x[2,16] 
 BV BND1      x[3,1]  
 BV BND1      x[3,2]  
 BV BND1      x[3,3]  
 BV BND1      x[3,4]  
 BV BND1      x[3,5]  
 BV BND1      x[3,6]  
 BV BND1      x[3,7]  
 BV BND1      x[3,8]  
 BV BND1      x[3,9]  
 BV BND1      x[3,10] 
 BV BND1      x[3,11] 
 BV BND1      x[3,12] 
 BV BND1      x[3,13] 
 BV BND1      x[3,14] 
 BV BND1      x[3,15] 
 BV BND1      x[3,16] 
ENDATA
